(declare-fun a_ack!17 () (_ BitVec 32))
(declare-fun b_ack!15 () (_ BitVec 32))
(declare-fun c_ack!16 () (_ BitVec 64))
(assert (not (bvslt a_ack!17 #x00000000)))
(assert (not (bvslt b_ack!15 a_ack!17)))
(assert (fp.eq ((_ to_fp 11 53) c_ack!16) ((_ to_fp 11 53) #x0000000000000000)))
(assert (not (bvsle a_ack!17 b_ack!15)))

(check-sat)
(exit)
